\ENCODING=ISO-8859-1
\Problem name: CompactDef

Maximize
 obj: 13.4259259593066 PathValue29 + 13.4259258971495 PathValue30
      + 0 Resource,1 + 0 Resource,2 + 0 Resource,3 + 0 Resource,5
      + 0 Resource,6
Subject To
 TotalValue27:    - 0.784 Path27,4,1 - 0.784 OV28,27,4,1 - 0.784 OV30,27,4,1
                  - 0.784 Path27,4,2 - 0.784 OV28,27,4,2 - 0.784 OV30,27,4,2
                  - 0.784 Path27,4,3 - 0.784 OV28,27,4,3 - 0.784 OV30,27,4,3
                  + PathValue27 <= 0
 TotalValue28:    - 0.784 OV27,28,4,1 - 0.784 Path28,4,1 - 0.784 OV30,28,4,1
                  - 0.784 OV27,28,4,2 - 0.784 Path28,4,2 - 0.784 OV30,28,4,2
                  - 0.784 OV27,28,4,3 - 0.784 Path28,4,3 - 0.784 OV30,28,4,3
                  + PathValue28 <= 0
 TotalValue29:    - 0.784 Path29,4,1 - 0.784 OV31,29,4,1 - 0.784 Path29,4,2
                  - 0.784 OV31,29,4,2 - 0.784 Path29,4,3 - 0.784 OV31,29,4,3
                  + PathValue29 <= 0
 TotalValue30:    - 0.784 OV27,30,4,1 - 0.784 OV28,30,4,1 - 0.784 Path30,4,1
                  - 0.784 OV27,30,4,2 - 0.784 OV28,30,4,2 - 0.784 Path30,4,2
                  - 0.784 OV27,30,4,3 - 0.784 OV28,30,4,3 - 0.784 Path30,4,3
                  + PathValue30 <= 0
 TotalValue31:    - 0.784 OV29,31,4,1 - 0.784 Path31,4,1 - 0.784 OV29,31,4,2
                  - 0.784 Path31,4,2 - 0.784 OV29,31,4,3 - 0.784 Path31,4,3
                  + PathValue31 <= 0
 SumResources4,1: Path27,4,1 + Path28,4,1 + Path29,4,1 + Path30,4,1
                  + Path31,4,1 - Resource,4,1  = 0
 Overflow27,4,1:  - 5 Path27,4,1 + OV27,28,4,1 + OV27,29,4,1 + OV27,30,4,1
                  + OV27,31,4,1 <= 0
 Overflow28,4,1:  - 5 Path28,4,1 + OV28,27,4,1 + OV28,29,4,1 + OV28,30,4,1
                  + OV28,31,4,1 <= 0
 Overflow29,4,1:  - 5 Path29,4,1 + OV29,27,4,1 + OV29,28,4,1 + OV29,30,4,1
                  + OV29,31,4,1 <= 0
 Overflow30,4,1:  - 5 Path30,4,1 + OV30,27,4,1 + OV30,28,4,1 + OV30,29,4,1
                  + OV30,31,4,1 <= 0
 Overflow31,4,1:  - 5 Path31,4,1 + OV31,27,4,1 + OV31,28,4,1 + OV31,29,4,1
                  + OV31,30,4,1 <= 0
 SumResources4,2: Path27,4,2 + Path28,4,2 + Path29,4,2 + Path30,4,2
                  + Path31,4,2 - Resource,4,2  = 0
 Overflow27,4,2:  - 5 Path27,4,2 + OV27,28,4,2 + OV27,29,4,2 + OV27,30,4,2
                  + OV27,31,4,2 <= 0
 Overflow28,4,2:  - 5 Path28,4,2 + OV28,27,4,2 + OV28,29,4,2 + OV28,30,4,2
                  + OV28,31,4,2 <= 0
 Overflow29,4,2:  - 5 Path29,4,2 + OV29,27,4,2 + OV29,28,4,2 + OV29,30,4,2
                  + OV29,31,4,2 <= 0
 Overflow30,4,2:  - 5 Path30,4,2 + OV30,27,4,2 + OV30,28,4,2 + OV30,29,4,2
                  + OV30,31,4,2 <= 0
 Overflow31,4,2:  - 5 Path31,4,2 + OV31,27,4,2 + OV31,28,4,2 + OV31,29,4,2
                  + OV31,30,4,2 <= 0
 SumResources4,3: Path27,4,3 + Path28,4,3 + Path29,4,3 + Path30,4,3
                  + Path31,4,3 - Resource,4,3  = 0
 Overflow27,4,3:  - 5 Path27,4,3 + OV27,28,4,3 + OV27,29,4,3 + OV27,30,4,3
                  + OV27,31,4,3 <= 0
 Overflow28,4,3:  - 5 Path28,4,3 + OV28,27,4,3 + OV28,29,4,3 + OV28,30,4,3
                  + OV28,31,4,3 <= 0
 Overflow29,4,3:  - 5 Path29,4,3 + OV29,27,4,3 + OV29,28,4,3 + OV29,30,4,3
                  + OV29,31,4,3 <= 0
 Overflow30,4,3:  - 5 Path30,4,3 + OV30,27,4,3 + OV30,28,4,3 + OV30,29,4,3
                  + OV30,31,4,3 <= 0
 Overflow31,4,3:  - 5 Path31,4,3 + OV31,27,4,3 + OV31,28,4,3 + OV31,29,4,3
                  + OV31,30,4,3 <= 0
 SumResources4:   Resource,4,1 + Resource,4,2 + Resource,4,3 - Resource,4  = 0
Bounds
 0 <= Path27,4,1 <= 1
 0 <= OV27,28,4,1 <= 1
 0 <= OV27,29,4,1 <= 1
 0 <= OV27,30,4,1 <= 1
 0 <= OV27,31,4,1 <= 1
 0 <= Path28,4,1 <= 1
 0 <= OV28,27,4,1 <= 1
 0 <= OV28,29,4,1 <= 1
 0 <= OV28,30,4,1 <= 1
 0 <= OV28,31,4,1 <= 1
 0 <= Path29,4,1 <= 1
 0 <= OV29,27,4,1 <= 1
 0 <= OV29,28,4,1 <= 1
 0 <= OV29,30,4,1 <= 1
 0 <= OV29,31,4,1 <= 1
 0 <= Path30,4,1 <= 1
 0 <= OV30,27,4,1 <= 1
 0 <= OV30,28,4,1 <= 1
 0 <= OV30,29,4,1 <= 1
 0 <= OV30,31,4,1 <= 1
 0 <= Path31,4,1 <= 1
 0 <= OV31,27,4,1 <= 1
 0 <= OV31,28,4,1 <= 1
 0 <= OV31,29,4,1 <= 1
 0 <= OV31,30,4,1 <= 1
 0 <= Path27,4,2 <= 1
 0 <= OV27,28,4,2 <= 1
 0 <= OV27,29,4,2 <= 1
 0 <= OV27,30,4,2 <= 1
 0 <= OV27,31,4,2 <= 1
 0 <= Path28,4,2 <= 1
 0 <= OV28,27,4,2 <= 1
 0 <= OV28,29,4,2 <= 1
 0 <= OV28,30,4,2 <= 1
 0 <= OV28,31,4,2 <= 1
 0 <= Path29,4,2 <= 1
 0 <= OV29,27,4,2 <= 1
 0 <= OV29,28,4,2 <= 1
 0 <= OV29,30,4,2 <= 1
 0 <= OV29,31,4,2 <= 1
 0 <= Path30,4,2 <= 1
 0 <= OV30,27,4,2 <= 1
 0 <= OV30,28,4,2 <= 1
 0 <= OV30,29,4,2 <= 1
 0 <= OV30,31,4,2 <= 1
 0 <= Path31,4,2 <= 1
 0 <= OV31,27,4,2 <= 1
 0 <= OV31,28,4,2 <= 1
 0 <= OV31,29,4,2 <= 1
 0 <= OV31,30,4,2 <= 1
 0 <= Path27,4,3 <= 1
 0 <= OV27,28,4,3 <= 1
 0 <= OV27,29,4,3 <= 1
 0 <= OV27,30,4,3 <= 1
 0 <= OV27,31,4,3 <= 1
 0 <= Path28,4,3 <= 1
 0 <= OV28,27,4,3 <= 1
 0 <= OV28,29,4,3 <= 1
 0 <= OV28,30,4,3 <= 1
 0 <= OV28,31,4,3 <= 1
 0 <= Path29,4,3 <= 1
 0 <= OV29,27,4,3 <= 1
 0 <= OV29,28,4,3 <= 1
 0 <= OV29,30,4,3 <= 1
 0 <= OV29,31,4,3 <= 1
 0 <= Path30,4,3 <= 1
 0 <= OV30,27,4,3 <= 1
 0 <= OV30,28,4,3 <= 1
 0 <= OV30,29,4,3 <= 1
 0 <= OV30,31,4,3 <= 1
 0 <= Path31,4,3 <= 1
 0 <= OV31,27,4,3 <= 1
 0 <= OV31,28,4,3 <= 1
 0 <= OV31,29,4,3 <= 1
 0 <= OV31,30,4,3 <= 1
 0 <= PathValue27 <= 1
 0 <= PathValue28 <= 1
 0 <= PathValue29 <= 1
 0 <= PathValue30 <= 1
 0 <= PathValue31 <= 1
      Resource,1 = 0
      Resource,2 = 0
      Resource,3 = 0
      Resource,4,1 = 1
      Resource,4,2 = 1
      Resource,4,3 = 1
      Resource,4 = 3
      Resource,5 = 0
      Resource,6 = 0
Generals
 Path27,4,1  OV27,28,4,1  OV27,29,4,1  OV27,30,4,1  OV27,31,4,1  Path28,4,1 
 OV28,27,4,1  OV28,29,4,1  OV28,30,4,1  OV28,31,4,1  Path29,4,1  OV29,27,4,1 
 OV29,28,4,1  OV29,30,4,1  OV29,31,4,1  Path30,4,1  OV30,27,4,1  OV30,28,4,1 
 OV30,29,4,1  OV30,31,4,1  Path31,4,1  OV31,27,4,1  OV31,28,4,1  OV31,29,4,1 
 OV31,30,4,1  Path27,4,2  OV27,28,4,2  OV27,29,4,2  OV27,30,4,2  OV27,31,4,2 
 Path28,4,2  OV28,27,4,2  OV28,29,4,2  OV28,30,4,2  OV28,31,4,2  Path29,4,2 
 OV29,27,4,2  OV29,28,4,2  OV29,30,4,2  OV29,31,4,2  Path30,4,2  OV30,27,4,2 
 OV30,28,4,2  OV30,29,4,2  OV30,31,4,2  Path31,4,2  OV31,27,4,2  OV31,28,4,2 
 OV31,29,4,2  OV31,30,4,2  Path27,4,3  OV27,28,4,3  OV27,29,4,3  OV27,30,4,3 
 OV27,31,4,3  Path28,4,3  OV28,27,4,3  OV28,29,4,3  OV28,30,4,3  OV28,31,4,3 
 Path29,4,3  OV29,27,4,3  OV29,28,4,3  OV29,30,4,3  OV29,31,4,3  Path30,4,3 
 OV30,27,4,3  OV30,28,4,3  OV30,29,4,3  OV30,31,4,3  Path31,4,3  OV31,27,4,3 
 OV31,28,4,3  OV31,29,4,3  OV31,30,4,3  Resource,1  Resource,2  Resource,3 
 Resource,4,1  Resource,4,2  Resource,4,3  Resource,4  Resource,5  Resource,6 
End
